Maximize
 obj: x#1 + x#2 + x#3 + x#4 + x#5
Subject to
 edge_1: x#2 + x#1 <= 1
 edge_2: x#3 + x#2 <= 1
 edge_3: x#4 + x#3 <= 1
 edge_4: x#5 + x#4 <= 1
 edge_5: x#1 + x#5 <= 1
Bounds
 0 <= x#1 <= 1
 0 <= x#2 <= 1
 0 <= x#3 <= 1
 0 <= x#4 <= 1
 0 <= x#5 <= 1
General
 x#1 x#2 x#3 x#4 x#5
End
